Cd2 C55 N1                              
   1.00000000000000     
    12.3386200000000006    0.0000000000000000    0.0000000000000000
     0.0000000000000000   12.8226700000000005    0.0000000000000000
     0.0000000000000000    0.0000000000000000   15.0000000000000000
   C    N    C    Cd
    54     1     1     2
Direct
 -0.0013012758588210 -0.0006277123891535  0.2824386453464567
  0.9019720983180699  0.1671679218910609  0.2844607898684531
  0.8074009687234099  0.3330355790667851  0.2864569005338793
  0.7053275372220602  0.4986176562037870  0.2871983884767538
  0.5984619610174111  0.6610093995837850  0.2863862052932650
  0.4978839459878945  0.8289030759820211  0.2864295312374487
  0.4017152552784808  0.0007092559435480  0.2851557503053251
  0.1984129381727368 -0.0007189418566431  0.2825699150907388
  0.1001260768641450  0.1644534578834361  0.2829073425345649
  0.0127584524079927  0.3342575098127810  0.2850468650877491
  0.9103954488238405  0.4996160375792820  0.2861373670404734
  0.8011815365839923  0.6650167144120759  0.2860356492169220
  0.6985059805711157  0.8320609030756548  0.2861034854199818
  0.5976559025813324  0.0014726909300495  0.2867059038505737
  0.2980208312878185  0.1598747902861695  0.2845152792755563
  0.1205456453024957  0.5006130789979782  0.2859439542879898
  0.0029754523660639  0.6656503382575917  0.2851240146713486
  0.8992622728998750  0.8322773536192222  0.2843116681809367
  0.7988540598838675  0.0002432841869829  0.2848590794883841
  0.4960894525973212  0.1763867204413805  0.2864986036335968
  0.2002212088622070  0.6738867080574180  0.2829900665971524
  0.0988299332546012  0.8347214965616352  0.2830402166683071
  0.7000199802250392  0.1683287462973906  0.2871042854929415
  0.2997680752065146  0.8380135538842787  0.2837757523863392
  0.0988007192654860  0.0539419036736973  0.2821850899311381
  0.0032355372531078  0.2228806882252426  0.2839287334747494
  0.9105313022834950  0.3887672869324128  0.2859466640919884
  0.8070131081010389  0.5538897454155661  0.2866327278710686
  0.6992368604253113  0.7199034294210277  0.2861057524975813
  0.5975342609440433  0.8877166271531296  0.2865621297461297
  0.4988487225269413  0.0618233606860249  0.2863166467350797
  0.2998749485832991  0.0522273146275447  0.2839149143189109
  0.2001064528745800  0.2153138280484065  0.2833894730606531
  0.1206774420698301  0.3881410591731585  0.2849186858748721
  0.0128487026861163  0.5542120353479378  0.2857914652338920
  0.9013880728581283  0.7207128383553291  0.2852178472305979
  0.7988592343353843  0.8880855359914196  0.2850409034821433
  0.6985230226068894  0.0563165349301356  0.2863767949655975
  0.3894462260100384  0.2282100784756365  0.2852535551116314
  0.0998932301664520  0.7242038849302490  0.2836804275758667
 -0.0013538795822391  0.8887842308078336  0.2830095722910640
  0.8993956846560783  0.0557001641436705  0.2835685833465998
  0.6009200109911316  0.2283918445845042  0.2879239658135184
  0.4946544865762306  0.7151128199140890  0.2866693105297398
  0.1983168282724966  0.8902125281746311  0.2828866245944419
  0.8023671385599265  0.2222136022133149  0.2862196973280707
  0.7061823885120506  0.3864371645108380  0.2876469218024059
  0.3893773902127320  0.6630768970576592  0.2860700906176799
  0.2974942089073833  0.7302703242128225  0.2828453295375295
  0.4012167158791779  0.8901547378145430  0.2853518058928592
  0.2198044554226018  0.3247482131310228  0.2837078735348887
  0.2201927973525429  0.5642274917980670  0.2857512856653492
  0.3402796713196983  0.5605034655458412  0.2915902174538856
  0.6051231409164923  0.5519446134504927  0.2860121788553592
  0.6084234503884726  0.3349430268939753  0.2891169199256016
  0.3399654677997490  0.3314675766345090  0.2823380204961540
  0.4662560059442948  0.4449921419582750  0.2875128704006599
  0.3294824563015720  0.4435073870585149  0.5293802607272290
 
  0.00000000E+00  0.00000000E+00  0.00000000E+00
  0.00000000E+00  0.00000000E+00  0.00000000E+00
  0.00000000E+00  0.00000000E+00  0.00000000E+00
  0.00000000E+00  0.00000000E+00  0.00000000E+00
  0.00000000E+00  0.00000000E+00  0.00000000E+00
  0.00000000E+00  0.00000000E+00  0.00000000E+00
  0.00000000E+00  0.00000000E+00  0.00000000E+00
  0.00000000E+00  0.00000000E+00  0.00000000E+00
  0.00000000E+00  0.00000000E+00  0.00000000E+00
  0.00000000E+00  0.00000000E+00  0.00000000E+00
  0.00000000E+00  0.00000000E+00  0.00000000E+00
  0.00000000E+00  0.00000000E+00  0.00000000E+00
  0.00000000E+00  0.00000000E+00  0.00000000E+00
  0.00000000E+00  0.00000000E+00  0.00000000E+00
  0.00000000E+00  0.00000000E+00  0.00000000E+00
  0.00000000E+00  0.00000000E+00  0.00000000E+00
  0.00000000E+00  0.00000000E+00  0.00000000E+00
  0.00000000E+00  0.00000000E+00  0.00000000E+00
  0.00000000E+00  0.00000000E+00  0.00000000E+00
  0.00000000E+00  0.00000000E+00  0.00000000E+00
  0.00000000E+00  0.00000000E+00  0.00000000E+00
  0.00000000E+00  0.00000000E+00  0.00000000E+00
  0.00000000E+00  0.00000000E+00  0.00000000E+00
  0.00000000E+00  0.00000000E+00  0.00000000E+00
  0.00000000E+00  0.00000000E+00  0.00000000E+00
  0.00000000E+00  0.00000000E+00  0.00000000E+00
  0.00000000E+00  0.00000000E+00  0.00000000E+00
  0.00000000E+00  0.00000000E+00  0.00000000E+00
  0.00000000E+00  0.00000000E+00  0.00000000E+00
  0.00000000E+00  0.00000000E+00  0.00000000E+00
  0.00000000E+00  0.00000000E+00  0.00000000E+00
  0.00000000E+00  0.00000000E+00  0.00000000E+00
  0.00000000E+00  0.00000000E+00  0.00000000E+00
  0.00000000E+00  0.00000000E+00  0.00000000E+00
  0.00000000E+00  0.00000000E+00  0.00000000E+00
  0.00000000E+00  0.00000000E+00  0.00000000E+00
  0.00000000E+00  0.00000000E+00  0.00000000E+00
  0.00000000E+00  0.00000000E+00  0.00000000E+00
  0.00000000E+00  0.00000000E+00  0.00000000E+00
  0.00000000E+00  0.00000000E+00  0.00000000E+00
  0.00000000E+00  0.00000000E+00  0.00000000E+00
  0.00000000E+00  0.00000000E+00  0.00000000E+00
  0.00000000E+00  0.00000000E+00  0.00000000E+00
  0.00000000E+00  0.00000000E+00  0.00000000E+00
  0.00000000E+00  0.00000000E+00  0.00000000E+00
  0.00000000E+00  0.00000000E+00  0.00000000E+00
  0.00000000E+00  0.00000000E+00  0.00000000E+00
  0.00000000E+00  0.00000000E+00  0.00000000E+00
  0.00000000E+00  0.00000000E+00  0.00000000E+00
  0.00000000E+00  0.00000000E+00  0.00000000E+00
  0.00000000E+00  0.00000000E+00  0.00000000E+00
  0.00000000E+00  0.00000000E+00  0.00000000E+00
  0.00000000E+00  0.00000000E+00  0.00000000E+00
  0.00000000E+00  0.00000000E+00  0.00000000E+00
  0.00000000E+00  0.00000000E+00  0.00000000E+00
  0.00000000E+00  0.00000000E+00  0.00000000E+00
  0.00000000E+00  0.00000000E+00  0.00000000E+00
  0.00000000E+00  0.00000000E+00  0.00000000E+00
