V1 Pb1 C54 N2                           
   1.00000000000000     
    12.3386200000000006    0.0000000000000000    0.0000000000000000
     0.0000000000000000   12.8226700000000005    0.0000000000000000
     0.0000000000000000    0.0000000000000000   15.0000000000000000
   C    N    C    N    V    Pb
    51     1     3     1     1     1
Direct
  0.0019097319818920  0.9985802987842226  0.2862245537088625
  0.8999246175289721  0.1664912645405597  0.2756463124287939
  0.8000446674087159  0.3351823360308678  0.2742241022906455
  0.7013887914280503  0.5050693696534591  0.2765186646537214
  0.6002938939214471  0.6704150209612770  0.2829522491094672
  0.5066231561432569  0.8330104190198908  0.2857846998587268
  0.4029824294253861  0.0017889289729944  0.2827423325117764
  0.2019255850223965  0.9981491904159486  0.2880571516831653
  0.0988454291035257  0.1640015665251428  0.2756149866571608
  0.9986310253944993  0.3325327791914033  0.2721518106562916
  0.9010503678660257  0.5009610774016896  0.2770580508513558
  0.8021005994980885  0.6687889510615265  0.2811525951782642
  0.7034311625890426  0.8357114535410303  0.2816574827284382
  0.6018049258132186  0.0033180943128818  0.2795097692580062
  0.2989138568591221  0.1650780589734219  0.2824629193517950
  0.1955266410814383  0.3288939882548001  0.2792202631718856
  0.0989766038083343  0.4971207951786543  0.2870187243871203
  0.0018674476728190  0.6661769059067139  0.2937808170624738
  0.9029463373663846  0.8337352727479603  0.2893297607672154
  0.8012204365767631  0.0017765008450188  0.2815667766167423
  0.4997662115213551  0.1713470502771221  0.2832854767608202
  0.2946914307427260  0.4874155985248985  0.3259714459843320
  0.1035986063727987  0.8310847438299577  0.3065335861221439
  0.6992477581604349  0.1710794632013937  0.2790521684230452
  0.1011583158413575  0.0534025436096714  0.2828375805943802
  0.9994687066865001  0.2210167163183749  0.2731314669982485
  0.9000921545852282  0.3898693582579417  0.2730943962770873
  0.8017966043583294  0.5581227937258586  0.2779395303748602
  0.7023703029302161  0.7247311781353998  0.2815554445287533
  0.6041024539420042  0.8920262008786546  0.2802765136834517
  0.5013665053330857  0.0599801583623645  0.2801972015250520
  0.3014504370210319  0.0543582774636387  0.2833778325761789
  0.1980030612497918  0.2189247982863483  0.2770940220095086
  0.0976953546242366  0.3869076519436102  0.2767790779610720
  0.0007710024667519  0.5550335731105155  0.2848102787119750
  0.9024725477907449  0.7230915256397882  0.2873713087765731
  0.8033253929851198  0.8906614535059251  0.2838544562364900
  0.7010002023825223  0.0589995548349579  0.2797485667078004
  0.3969377446042639  0.2227529096213758  0.2885964426833904
  0.2931992449966705  0.3793828909775598  0.2992460296759255
  0.1960899474536881  0.5491628087433488  0.3117709288827410
  0.1019936857119881  0.7182728372901817  0.3118678876021759
  0.0041955570802888  0.8871734107939959  0.2944777913762967
  0.9017352118279921  0.0555069249997639  0.2807787762097540
  0.5991303849752236  0.2305627370170911  0.2817802772845317
  0.2049516263109110  0.8878155807881367  0.3033599724885205
  0.7999008358422020  0.2239665350598586  0.2757834992716050
  0.7010746644996597  0.3919661350907027  0.2768330741491984
  0.4040830465835490  0.8906652862444486  0.2911068458830958
  0.1946435742786161  0.6557481363390624  0.3319374502088528
  0.3076594080862615  0.8388799285766534  0.3102927730195482
  0.5059935027959360  0.7278706010159928  0.2889194970418159
  0.3925836295471638  0.5265088558202502  0.3615264535694055
  0.6001691156866057  0.5578407073234926  0.2781555288419606
  0.5993301982055085  0.3423849199158809  0.2814804525796559
  0.3905367546742103  0.3279283364713599  0.3009623434139950
  0.4708179695787016  0.4579049192558010  0.2787621683201238
  0.3521881417769108  0.7007636264291488  0.4071844303137527
 
  0.00000000E+00  0.00000000E+00  0.00000000E+00
  0.00000000E+00  0.00000000E+00  0.00000000E+00
  0.00000000E+00  0.00000000E+00  0.00000000E+00
  0.00000000E+00  0.00000000E+00  0.00000000E+00
  0.00000000E+00  0.00000000E+00  0.00000000E+00
  0.00000000E+00  0.00000000E+00  0.00000000E+00
  0.00000000E+00  0.00000000E+00  0.00000000E+00
  0.00000000E+00  0.00000000E+00  0.00000000E+00
  0.00000000E+00  0.00000000E+00  0.00000000E+00
  0.00000000E+00  0.00000000E+00  0.00000000E+00
  0.00000000E+00  0.00000000E+00  0.00000000E+00
  0.00000000E+00  0.00000000E+00  0.00000000E+00
  0.00000000E+00  0.00000000E+00  0.00000000E+00
  0.00000000E+00  0.00000000E+00  0.00000000E+00
  0.00000000E+00  0.00000000E+00  0.00000000E+00
  0.00000000E+00  0.00000000E+00  0.00000000E+00
  0.00000000E+00  0.00000000E+00  0.00000000E+00
  0.00000000E+00  0.00000000E+00  0.00000000E+00
  0.00000000E+00  0.00000000E+00  0.00000000E+00
  0.00000000E+00  0.00000000E+00  0.00000000E+00
  0.00000000E+00  0.00000000E+00  0.00000000E+00
  0.00000000E+00  0.00000000E+00  0.00000000E+00
  0.00000000E+00  0.00000000E+00  0.00000000E+00
  0.00000000E+00  0.00000000E+00  0.00000000E+00
  0.00000000E+00  0.00000000E+00  0.00000000E+00
  0.00000000E+00  0.00000000E+00  0.00000000E+00
  0.00000000E+00  0.00000000E+00  0.00000000E+00
  0.00000000E+00  0.00000000E+00  0.00000000E+00
  0.00000000E+00  0.00000000E+00  0.00000000E+00
  0.00000000E+00  0.00000000E+00  0.00000000E+00
  0.00000000E+00  0.00000000E+00  0.00000000E+00
  0.00000000E+00  0.00000000E+00  0.00000000E+00
  0.00000000E+00  0.00000000E+00  0.00000000E+00
  0.00000000E+00  0.00000000E+00  0.00000000E+00
  0.00000000E+00  0.00000000E+00  0.00000000E+00
  0.00000000E+00  0.00000000E+00  0.00000000E+00
  0.00000000E+00  0.00000000E+00  0.00000000E+00
  0.00000000E+00  0.00000000E+00  0.00000000E+00
  0.00000000E+00  0.00000000E+00  0.00000000E+00
  0.00000000E+00  0.00000000E+00  0.00000000E+00
  0.00000000E+00  0.00000000E+00  0.00000000E+00
  0.00000000E+00  0.00000000E+00  0.00000000E+00
  0.00000000E+00  0.00000000E+00  0.00000000E+00
  0.00000000E+00  0.00000000E+00  0.00000000E+00
  0.00000000E+00  0.00000000E+00  0.00000000E+00
  0.00000000E+00  0.00000000E+00  0.00000000E+00
  0.00000000E+00  0.00000000E+00  0.00000000E+00
  0.00000000E+00  0.00000000E+00  0.00000000E+00
  0.00000000E+00  0.00000000E+00  0.00000000E+00
  0.00000000E+00  0.00000000E+00  0.00000000E+00
  0.00000000E+00  0.00000000E+00  0.00000000E+00
  0.00000000E+00  0.00000000E+00  0.00000000E+00
  0.00000000E+00  0.00000000E+00  0.00000000E+00
  0.00000000E+00  0.00000000E+00  0.00000000E+00
  0.00000000E+00  0.00000000E+00  0.00000000E+00
  0.00000000E+00  0.00000000E+00  0.00000000E+00
  0.00000000E+00  0.00000000E+00  0.00000000E+00
  0.00000000E+00  0.00000000E+00  0.00000000E+00
