Sc1 Co1 C56                             
   1.00000000000000     
    12.3386200000000006    0.0000000000000000    0.0000000000000000
     0.0000000000000000   12.8226700000000005    0.0000000000000000
     0.0000000000000000    0.0000000000000000   15.0000000000000000
   C    Co   Sc
    56     1     1
Direct
  0.9989248713271599  0.0002143547702102  0.2849709859033533
  0.5993177791570032  0.2269430890648260  0.3021367039085667
  0.8992341825620017  0.1663643769388509  0.2866101817294333
  0.8018807593264922  0.3329056396335395  0.2924831384419136
  0.7079938587907575  0.4991453210839807  0.3161855765503268
  0.3993193608167678  0.0025837236710614  0.2908762200700596
  0.1997149868188322  0.0012866892814710  0.2807832986859268
  0.0985617875488511  0.1661180431086590  0.2767416332297085
 -0.0013574679882228  0.3332339883791156  0.2742900564610408
  0.9009768060451513  0.5005546166875718  0.2839309864779310
  0.8041661157661020  0.6679083027908764  0.3041719513584798
  0.7000085086327639  0.8339321801279833  0.3137570662400060
  0.5982372904358038  0.0012465121406308  0.3036879082549439
  0.2998921527651450  0.1696134674767960  0.2789149938220047
  0.1953860295251951  0.3314901006058820  0.2659874688734729
  0.0971761441153796  0.5008529192035176  0.2637527086727831
  0.0000752888886828  0.6681364307228941  0.2774882338381697
  0.8996411962601861  0.8344714940141488  0.2924364853254879
  0.7985981275909111  0.0008558630337531  0.2974612525163019
  0.4990581988760291  0.1710796932895048  0.2946146142065192
  0.2911219333326262  0.4971479204496533  0.2539128561852972
  0.2001445112080097  0.6689432623799106  0.2663596087814152
  0.0994691009467470  0.8344901215309329  0.2783645869263191
  0.6991013012246137  0.1683918001458745  0.2996290121435964
  0.2994459816206030  0.8325284850452915  0.2827019106619888
  0.0989885719126453  0.0553671303298392  0.2803535146495818
  0.9988337278198736  0.2218945479170482  0.2784046293861280
  0.9000565862084189  0.3892594366204107  0.2824121455438332
  0.8039444240891210  0.5564349610547008  0.3009172570935966
  0.7062531493578242  0.7225578779107630  0.3215084591836184
  0.5964439750097070  0.8888737694090612  0.3118873197157327
  0.4989559506111994  0.0590196569240005  0.2968908886705474
  0.2996970885152361  0.0582941664665522  0.2828074914141607
  0.1980420822870681  0.2214673940307654  0.2731790612593451
  0.0968321845563740  0.3888273205147291  0.2659204009081825
 -0.0011141974295454  0.5568607378496231  0.2739032477900027
  0.9017250877505901  0.7237254191474729  0.2906368848871079
  0.7987253687997045  0.8893783141741296  0.3012744647587529
  0.6985431402786199  0.0569239788010712  0.3009889670270269
  0.3999444198691343  0.2289057340923646  0.2828464042393709
  0.2936386768213318  0.3855386301882409  0.2622931809423000
  0.1955125998141567  0.5569774092499176  0.2581020996655031
  0.0996558098069717  0.7237217500782787  0.2724517864001738
 -0.0009156868975026  0.8896854816261075  0.2848700585267667
  0.8987588460003876  0.0554552050026584  0.2898690796170615
  0.1995995285916994  0.8897083389654752  0.2797584252897272
  0.7998747750627864  0.2220267873637347  0.2925102523789702
  0.7044989177477897  0.3883381257263892  0.3063593367524235
  0.4004133632493800  0.8910994841567533  0.2949972582371299
  0.6152320258076898  0.6613560888785447  0.3422330345624151
  0.2998691316638991  0.7218417659995451  0.2759069978834325
  0.4960464269397614  0.8338527474448161  0.3117640916369619
  0.3969908857399107  0.5270046878330897  0.2607733466099152
  0.6117988499991935  0.5545081259029326  0.3384012572783239
  0.6019571823302527  0.3372511272561763  0.3090895315273811
  0.3983143303038609  0.3403122509024544  0.2734205062196882
  0.5063152961773189  0.4524971427949120  0.2929672837736355
  0.4504786756115531  0.6684850098104966  0.3524588969061623
 
  0.00000000E+00  0.00000000E+00  0.00000000E+00
  0.00000000E+00  0.00000000E+00  0.00000000E+00
  0.00000000E+00  0.00000000E+00  0.00000000E+00
  0.00000000E+00  0.00000000E+00  0.00000000E+00
  0.00000000E+00  0.00000000E+00  0.00000000E+00
  0.00000000E+00  0.00000000E+00  0.00000000E+00
  0.00000000E+00  0.00000000E+00  0.00000000E+00
  0.00000000E+00  0.00000000E+00  0.00000000E+00
  0.00000000E+00  0.00000000E+00  0.00000000E+00
  0.00000000E+00  0.00000000E+00  0.00000000E+00
  0.00000000E+00  0.00000000E+00  0.00000000E+00
  0.00000000E+00  0.00000000E+00  0.00000000E+00
  0.00000000E+00  0.00000000E+00  0.00000000E+00
  0.00000000E+00  0.00000000E+00  0.00000000E+00
  0.00000000E+00  0.00000000E+00  0.00000000E+00
  0.00000000E+00  0.00000000E+00  0.00000000E+00
  0.00000000E+00  0.00000000E+00  0.00000000E+00
  0.00000000E+00  0.00000000E+00  0.00000000E+00
  0.00000000E+00  0.00000000E+00  0.00000000E+00
  0.00000000E+00  0.00000000E+00  0.00000000E+00
  0.00000000E+00  0.00000000E+00  0.00000000E+00
  0.00000000E+00  0.00000000E+00  0.00000000E+00
  0.00000000E+00  0.00000000E+00  0.00000000E+00
  0.00000000E+00  0.00000000E+00  0.00000000E+00
  0.00000000E+00  0.00000000E+00  0.00000000E+00
  0.00000000E+00  0.00000000E+00  0.00000000E+00
  0.00000000E+00  0.00000000E+00  0.00000000E+00
  0.00000000E+00  0.00000000E+00  0.00000000E+00
  0.00000000E+00  0.00000000E+00  0.00000000E+00
  0.00000000E+00  0.00000000E+00  0.00000000E+00
  0.00000000E+00  0.00000000E+00  0.00000000E+00
  0.00000000E+00  0.00000000E+00  0.00000000E+00
  0.00000000E+00  0.00000000E+00  0.00000000E+00
  0.00000000E+00  0.00000000E+00  0.00000000E+00
  0.00000000E+00  0.00000000E+00  0.00000000E+00
  0.00000000E+00  0.00000000E+00  0.00000000E+00
  0.00000000E+00  0.00000000E+00  0.00000000E+00
  0.00000000E+00  0.00000000E+00  0.00000000E+00
  0.00000000E+00  0.00000000E+00  0.00000000E+00
  0.00000000E+00  0.00000000E+00  0.00000000E+00
  0.00000000E+00  0.00000000E+00  0.00000000E+00
  0.00000000E+00  0.00000000E+00  0.00000000E+00
  0.00000000E+00  0.00000000E+00  0.00000000E+00
  0.00000000E+00  0.00000000E+00  0.00000000E+00
  0.00000000E+00  0.00000000E+00  0.00000000E+00
  0.00000000E+00  0.00000000E+00  0.00000000E+00
  0.00000000E+00  0.00000000E+00  0.00000000E+00
  0.00000000E+00  0.00000000E+00  0.00000000E+00
  0.00000000E+00  0.00000000E+00  0.00000000E+00
  0.00000000E+00  0.00000000E+00  0.00000000E+00
  0.00000000E+00  0.00000000E+00  0.00000000E+00
  0.00000000E+00  0.00000000E+00  0.00000000E+00
  0.00000000E+00  0.00000000E+00  0.00000000E+00
  0.00000000E+00  0.00000000E+00  0.00000000E+00
  0.00000000E+00  0.00000000E+00  0.00000000E+00
  0.00000000E+00  0.00000000E+00  0.00000000E+00
  0.00000000E+00  0.00000000E+00  0.00000000E+00
  0.00000000E+00  0.00000000E+00  0.00000000E+00
