C4                                      
   1.00000000000000     
    12.3386201859000000    0.0000000000000000    0.0000000000000000
     0.0000000000000000   12.8226699829000008    0.0000000000000000
     0.0000000000000000    0.0000000000000000   15.0000000000000000
   C    N    W    Ga
    49     7     1     1
Direct
 -0.0024118718459970  0.0001138930944296  0.2809221416153421
  0.6022208679259651  0.2265058977074533  0.3014154476836604
  0.8990275853516607  0.1655292502268742  0.2773201198174055
  0.8042590715821482  0.3316919709824152  0.2798684572098536
  0.7107815641723743  0.4962323325022520  0.2986125034441627
  0.3977158124034170  0.0048796766386110  0.2926784066153026
  0.1980969825004712  0.0034747079243278  0.2853717551225096
  0.0984952567575783  0.1674980160186180  0.2798792041135884
  0.0013258585082126  0.3337176794243715  0.2717019257223692
  0.9043655334773146  0.4999309200021711  0.2740604100995065
  0.8008808305006025  0.6653454413194796  0.2888485216551901
  0.6918790162658318  0.8282005318501907  0.2912792299767566
  0.5955728203608788  0.0001591028912805  0.2928762346542189
  0.2985603976273607  0.1702915785709911  0.2924574468239032
  0.1974517169588881  0.3339734929076620  0.2838112380123098
  0.1038321236917506  0.5028856955473546  0.2748870459694490
  0.0016557052382617  0.6679400901697627  0.2786773618612656
  0.8964052802021959  0.8331759835144110  0.2842885308037980
  0.7959071366938578 -0.0018383117792969  0.2845224096207356
  0.4988904273675211  0.1733460551170521  0.3028923738576448
  0.3013052901879977  0.4984687038725154  0.2917035808617384
  0.2044647669697654  0.6715825472176969  0.2814109351601560
  0.0982288242449616  0.8356341577742677  0.2825631822101912
  0.6986731746809672  0.1670876465356394  0.2898637624179255
  0.2969784775682460  0.8381021519532827  0.2865451284682765
  0.0974230010739605  0.0565894568949120  0.2817743197376645
 -0.0008173057877357  0.2225478405424064  0.2749019462215678
  0.9028545632905083  0.3889527439587585  0.2724931179722192
  0.8054344971778341  0.5539702269076808  0.2848035609002242
  0.6969387007875015  0.7151417453041705  0.2962810003090218
  0.5915597190349623  0.8870057896900734  0.2922145023494517
  0.4978631267500936  0.0606315161162347  0.2965128336523935
  0.2979086020002277  0.0594233688617116  0.2898656467833176
  0.1973751414847723  0.2234182413708523  0.2855852453300914
  0.1005669852906405  0.3912331508693448  0.2745182455937322
  0.0034811507687656  0.5572357042311250  0.2738761343755738
  0.8996133301371942  0.7222320713286519  0.2836399053747741
  0.7941517342202222  0.8858257550962929  0.2864002244769229
  0.6965637848952942  0.0547942114397935  0.2888802428112477
  0.3964223794293548  0.2271461661895524  0.3039864550394707
  0.2948745950630257  0.3882647309795426  0.2963244988972861
  0.2053114522707332  0.5591303241832761  0.2810224253252906
  0.1021348603329885  0.7241276655113196  0.2804047463995275
 -0.0026101103963895  0.8890717997988878  0.2824482133223081
  0.8970444203316411  0.0539843050965030  0.2804280010614989
  0.1976767730805855  0.8925864175064114  0.2847400586016008
  0.8005034319336948  0.2208891187228268  0.2813954557830469
  0.7080243001920989  0.3865919290060880  0.2938350964071360
  0.3971279467269156  0.8942418999685315  0.2901949972224047
  0.6060225651796262  0.6529568106378957  0.3103396211717752
  0.3004854876830900  0.7304671482551207  0.2848698790406888
  0.4917581694712588  0.8369724080196298  0.2919511976206936
  0.4055590455021343  0.5392258643809001  0.3040167252784618
  0.6180864178710948  0.5455397443408031  0.3292842433836647
  0.6106599605600802  0.3347190410705101  0.3106079820918842
  0.3905603939229648  0.3347790734100376  0.3179403218566064
  0.5023240053182257  0.4403170299326403  0.3588782463090171
  0.4525543564112431  0.6839469584125361  0.2915336053689029
 
  0.00000000E+00  0.00000000E+00  0.00000000E+00
  0.00000000E+00  0.00000000E+00  0.00000000E+00
  0.00000000E+00  0.00000000E+00  0.00000000E+00
  0.00000000E+00  0.00000000E+00  0.00000000E+00
  0.00000000E+00  0.00000000E+00  0.00000000E+00
  0.00000000E+00  0.00000000E+00  0.00000000E+00
  0.00000000E+00  0.00000000E+00  0.00000000E+00
  0.00000000E+00  0.00000000E+00  0.00000000E+00
  0.00000000E+00  0.00000000E+00  0.00000000E+00
  0.00000000E+00  0.00000000E+00  0.00000000E+00
  0.00000000E+00  0.00000000E+00  0.00000000E+00
  0.00000000E+00  0.00000000E+00  0.00000000E+00
  0.00000000E+00  0.00000000E+00  0.00000000E+00
  0.00000000E+00  0.00000000E+00  0.00000000E+00
  0.00000000E+00  0.00000000E+00  0.00000000E+00
  0.00000000E+00  0.00000000E+00  0.00000000E+00
  0.00000000E+00  0.00000000E+00  0.00000000E+00
  0.00000000E+00  0.00000000E+00  0.00000000E+00
  0.00000000E+00  0.00000000E+00  0.00000000E+00
  0.00000000E+00  0.00000000E+00  0.00000000E+00
  0.00000000E+00  0.00000000E+00  0.00000000E+00
  0.00000000E+00  0.00000000E+00  0.00000000E+00
  0.00000000E+00  0.00000000E+00  0.00000000E+00
  0.00000000E+00  0.00000000E+00  0.00000000E+00
  0.00000000E+00  0.00000000E+00  0.00000000E+00
  0.00000000E+00  0.00000000E+00  0.00000000E+00
  0.00000000E+00  0.00000000E+00  0.00000000E+00
  0.00000000E+00  0.00000000E+00  0.00000000E+00
  0.00000000E+00  0.00000000E+00  0.00000000E+00
  0.00000000E+00  0.00000000E+00  0.00000000E+00
  0.00000000E+00  0.00000000E+00  0.00000000E+00
  0.00000000E+00  0.00000000E+00  0.00000000E+00
  0.00000000E+00  0.00000000E+00  0.00000000E+00
  0.00000000E+00  0.00000000E+00  0.00000000E+00
  0.00000000E+00  0.00000000E+00  0.00000000E+00
  0.00000000E+00  0.00000000E+00  0.00000000E+00
  0.00000000E+00  0.00000000E+00  0.00000000E+00
  0.00000000E+00  0.00000000E+00  0.00000000E+00
  0.00000000E+00  0.00000000E+00  0.00000000E+00
  0.00000000E+00  0.00000000E+00  0.00000000E+00
  0.00000000E+00  0.00000000E+00  0.00000000E+00
  0.00000000E+00  0.00000000E+00  0.00000000E+00
  0.00000000E+00  0.00000000E+00  0.00000000E+00
  0.00000000E+00  0.00000000E+00  0.00000000E+00
  0.00000000E+00  0.00000000E+00  0.00000000E+00
  0.00000000E+00  0.00000000E+00  0.00000000E+00
  0.00000000E+00  0.00000000E+00  0.00000000E+00
  0.00000000E+00  0.00000000E+00  0.00000000E+00
  0.00000000E+00  0.00000000E+00  0.00000000E+00
  0.00000000E+00  0.00000000E+00  0.00000000E+00
  0.00000000E+00  0.00000000E+00  0.00000000E+00
  0.00000000E+00  0.00000000E+00  0.00000000E+00
  0.00000000E+00  0.00000000E+00  0.00000000E+00
  0.00000000E+00  0.00000000E+00  0.00000000E+00
  0.00000000E+00  0.00000000E+00  0.00000000E+00
  0.00000000E+00  0.00000000E+00  0.00000000E+00
  0.00000000E+00  0.00000000E+00  0.00000000E+00
  0.00000000E+00  0.00000000E+00  0.00000000E+00
