Tc1 Cu1 C50 N6                          
   1.00000000000000     
    12.3386200000000006    0.0000000000000000    0.0000000000000000
     0.0000000000000000   12.8226700000000005    0.0000000000000000
     0.0000000000000000    0.0000000000000000   15.0000000000000000
   C    N    C    N    Tc   Cu
    49     4     1     2     1     1
Direct
  0.9977643550943599  0.9995669261911256  0.2813112069352140
  0.6022259397716160  0.2269810070271694  0.2965223150141381
  0.8997460011423599  0.1651289735094892  0.2783386967337091
  0.8049606686391412  0.3310587144885865  0.2812589556371447
  0.7098903676820484  0.4957324421040527  0.2940849169070895
  0.3980610833714919  0.0046863842246120  0.2925846717205563
  0.1983832695359840  0.0027989584365061  0.2858114074792709
  0.0987278076282472  0.1668571753291152  0.2799415830430131
  0.0019636493754999  0.3337230513814856  0.2744430294238965
  0.9053122068620005  0.4998034149507780  0.2778741866013484
  0.8001950556989844  0.6649146758348801  0.2862111149586235
  0.6919581097437952  0.8289764578648718  0.2886445087270170
  0.5958941691120956  0.0013023726948602  0.2912159846669332
  0.2985958865380811  0.1699312872725119  0.2911524220940553
  0.1982345489310115  0.3335014754335380  0.2822072059002707
  0.1044004891138621  0.5028410742622682  0.2787281046978449
  0.0014447756905615  0.6678540299696866  0.2801168339588919
  0.8963048997084573  0.8328401182090167  0.2829087748104839
  0.7961495073995205  0.9983129297800577  0.2837394977267091
  0.4992821951201888  0.1739393920068005  0.2997948771768079
  0.3006118211472023  0.4986807924501335  0.3006299381009341
  0.2045567329963533  0.6720812737552392  0.2863915212473048
  0.0983088752797905  0.8351192952830052  0.2832492510835793
  0.6992375156065063  0.1673072698410523  0.2872610257645710
  0.2971956064065655  0.8362617269663417  0.2890774479745607
  0.0978200180699525  0.0559787471254196  0.2822027383547273
  0.9997087762113853  0.2222409592127761  0.2762564110022681
  0.9034607397931322  0.3888457562341718  0.2763816273595857
  0.8058302188410709  0.5538451768663634  0.2849757875321892
  0.6956179284532383  0.7157164841470034  0.2906496428557186
  0.5911523191456906  0.8880895222308437  0.2913284476174542
  0.4981466957786518  0.0613366503598296  0.2948641637683140
  0.2980633359771119  0.0590733057574353  0.2898097471991188
  0.1980293073160584  0.2229429186963778  0.2839692852573788
  0.1010262502586038  0.3911114868966947  0.2764579195780734
  0.0040446403903971  0.5570007044418659  0.2772186219075373
  0.8993127858439155  0.7219517568825089  0.2824577620416231
  0.7936568803001522  0.8859590455174075  0.2849342546513905
  0.6969093361517346  0.0553263024889627  0.2871072445382846
  0.3967543300245548  0.2286563974882779  0.3014461786162544
  0.2961423043318612  0.3868958890127734  0.2953147561636452
  0.2051240374412920  0.5590894377699747  0.2872182565990284
  0.1014222860474126  0.7242345905818668  0.2822991012517442
  0.9970430333956289  0.8887459974055231  0.2821793680838562
  0.8974894793209441  0.0537552018637884  0.2806722832300081
  0.1981084534540863  0.8917569638812495  0.2858969737040853
  0.8011965213056806  0.2204974805962503  0.2813787980265702
  0.7078941763330476  0.3852214864033672  0.2917172064251500
  0.3988523959977852  0.8938236986444968  0.2917008308387715
  0.6044225930386723  0.6539524227459033  0.2994968921691230
  0.2990284046840096  0.7291994481573834  0.2901057927105868
  0.4930840135363611  0.8384899084343209  0.2935662729418029
  0.3995737435641550  0.5352290575811554  0.3258056069896318
  0.6117547628058682  0.5492699000127254  0.3108103651989114
  0.6097536864345867  0.3345541216430516  0.3033020399594169
  0.3910802539827582  0.3352495563017516  0.3114101995932792
  0.5104625813708726  0.4450726695385864  0.3548742626525617
  0.4486281728035994  0.6845757358127095  0.3030966827979220
 
  0.00000000E+00  0.00000000E+00  0.00000000E+00
  0.00000000E+00  0.00000000E+00  0.00000000E+00
  0.00000000E+00  0.00000000E+00  0.00000000E+00
  0.00000000E+00  0.00000000E+00  0.00000000E+00
  0.00000000E+00  0.00000000E+00  0.00000000E+00
  0.00000000E+00  0.00000000E+00  0.00000000E+00
  0.00000000E+00  0.00000000E+00  0.00000000E+00
  0.00000000E+00  0.00000000E+00  0.00000000E+00
  0.00000000E+00  0.00000000E+00  0.00000000E+00
  0.00000000E+00  0.00000000E+00  0.00000000E+00
  0.00000000E+00  0.00000000E+00  0.00000000E+00
  0.00000000E+00  0.00000000E+00  0.00000000E+00
  0.00000000E+00  0.00000000E+00  0.00000000E+00
  0.00000000E+00  0.00000000E+00  0.00000000E+00
  0.00000000E+00  0.00000000E+00  0.00000000E+00
  0.00000000E+00  0.00000000E+00  0.00000000E+00
  0.00000000E+00  0.00000000E+00  0.00000000E+00
  0.00000000E+00  0.00000000E+00  0.00000000E+00
  0.00000000E+00  0.00000000E+00  0.00000000E+00
  0.00000000E+00  0.00000000E+00  0.00000000E+00
  0.00000000E+00  0.00000000E+00  0.00000000E+00
  0.00000000E+00  0.00000000E+00  0.00000000E+00
  0.00000000E+00  0.00000000E+00  0.00000000E+00
  0.00000000E+00  0.00000000E+00  0.00000000E+00
  0.00000000E+00  0.00000000E+00  0.00000000E+00
  0.00000000E+00  0.00000000E+00  0.00000000E+00
  0.00000000E+00  0.00000000E+00  0.00000000E+00
  0.00000000E+00  0.00000000E+00  0.00000000E+00
  0.00000000E+00  0.00000000E+00  0.00000000E+00
  0.00000000E+00  0.00000000E+00  0.00000000E+00
  0.00000000E+00  0.00000000E+00  0.00000000E+00
  0.00000000E+00  0.00000000E+00  0.00000000E+00
  0.00000000E+00  0.00000000E+00  0.00000000E+00
  0.00000000E+00  0.00000000E+00  0.00000000E+00
  0.00000000E+00  0.00000000E+00  0.00000000E+00
  0.00000000E+00  0.00000000E+00  0.00000000E+00
  0.00000000E+00  0.00000000E+00  0.00000000E+00
  0.00000000E+00  0.00000000E+00  0.00000000E+00
  0.00000000E+00  0.00000000E+00  0.00000000E+00
  0.00000000E+00  0.00000000E+00  0.00000000E+00
  0.00000000E+00  0.00000000E+00  0.00000000E+00
  0.00000000E+00  0.00000000E+00  0.00000000E+00
  0.00000000E+00  0.00000000E+00  0.00000000E+00
  0.00000000E+00  0.00000000E+00  0.00000000E+00
  0.00000000E+00  0.00000000E+00  0.00000000E+00
  0.00000000E+00  0.00000000E+00  0.00000000E+00
  0.00000000E+00  0.00000000E+00  0.00000000E+00
  0.00000000E+00  0.00000000E+00  0.00000000E+00
  0.00000000E+00  0.00000000E+00  0.00000000E+00
  0.00000000E+00  0.00000000E+00  0.00000000E+00
  0.00000000E+00  0.00000000E+00  0.00000000E+00
  0.00000000E+00  0.00000000E+00  0.00000000E+00
  0.00000000E+00  0.00000000E+00  0.00000000E+00
  0.00000000E+00  0.00000000E+00  0.00000000E+00
  0.00000000E+00  0.00000000E+00  0.00000000E+00
  0.00000000E+00  0.00000000E+00  0.00000000E+00
  0.00000000E+00  0.00000000E+00  0.00000000E+00
  0.00000000E+00  0.00000000E+00  0.00000000E+00
