KPT-Resolved Value to Generate K-Mesh: 0.030
0
Gamma
   3   3   1
0.0  0.0  0.0
