Ce1 Zr1 C56                             
   1.00000000000000     
    12.3386200000000006    0.0000000000000000    0.0000000000000000
     0.0000000000000000   12.8226700000000005    0.0000000000000000
     0.0000000000000000    0.0000000000000000   15.0000000000000000
   C    Ce   Zr
    56     1     1
Direct
  0.9994621830856403  0.0001751494650435  0.2668414244211519
  0.6004700119425337  0.2245875302403491  0.2883377932832474
  0.8995633520453552  0.1670469351880968  0.2681907015126441
  0.8015138416486778  0.3339281490316850  0.2783592470137890
  0.7030850254822383  0.5012808474972275  0.2996902424487899
  0.3986874571015591  0.0024145040671115  0.2836472103130134
  0.1986495302269375  0.0004202401758064  0.2762600080930397
  0.0987368488512956  0.1666075524613504  0.2734033005821601
  0.0002346659035695  0.3339734119218321  0.2753116912961815
  0.9016240145881511  0.5007527700226788  0.2789344018356203
  0.8031462889492360  0.6681202291854262  0.2813373704711921
  0.7004585920231250  0.8347409327103748  0.2776122084695629
  0.5989482555903578  0.0006889498367144  0.2765806298584579
  0.2980906334411699  0.1666946423101479  0.2862243134211582
  0.1966725352954484  0.3318813484434244  0.2920358226183666
  0.1012645932731644  0.5008767080036307  0.2867676137114188
  0.0023178564720112  0.6673924968224441  0.2758185221423233
  0.9002582564830064  0.8338408378703122  0.2686165265190610
  0.7992741722332113  0.0009867345453074  0.2672041567722019
  0.4989985503705796  0.1682435458971128  0.2911247874518210
  0.2927176026278033  0.4977944060966522  0.3332456162338175
  0.2028646922024322  0.6677068219368678  0.2918649370434068
  0.1000022193692729  0.8335359440336347  0.2737524810192795
  0.6996103867784811  0.1675459362147294  0.2756756052847251
  0.2984020512921148  0.8336395603843059  0.2855753231308995
  0.0989549426926501  0.0557060668921991  0.2707941080895750
  0.9995445511901551  0.2225813885025758  0.2713098130004923
  0.9007632467379452  0.3897840492876838  0.2764899463689190
  0.8019531423497597  0.5565598351279064  0.2864556225376589
  0.7048794997107422  0.7244052521932005  0.2886769984686808
  0.5977967815456537  0.8891283372657597  0.2794153660059422
  0.4991603773359046  0.0578898876491536  0.2828309881098292
  0.2984920008928640  0.0564175937341389  0.2814699474032025
  0.1980607180366221  0.2218602973825199  0.2830284028008521
  0.0989491061704726  0.3889532068026611  0.2845915848879699
  0.0016031158901697  0.5561726274803647  0.2784015244073217
  0.9024511274806173  0.7231647360882079  0.2729128451687757
  0.7993892067481312  0.8895985873150352  0.2691484224014005
  0.6992123592776167  0.0564139873942793  0.2717685582927842
  0.3972649053682105  0.2224117700367501  0.2984068848157477
  0.2941928160433704  0.3844488067327134  0.3145652894279181
  0.1994442315314444  0.5561350081436700  0.3018895301252940
  0.1020692276507518  0.7224645184056087  0.2784423572796513
  0.9998803975353141  0.8891563403472205  0.2679604791690693
  0.8993375176406175  0.0560927117272030  0.2659386126413779
  0.1987700445122442  0.8898607945306836  0.2783103476644726
  0.7997891837546049  0.2227905307448594  0.2727089701156515
  0.7023387951950397  0.3888439446293219  0.2912796557975454
  0.4001196019212969  0.8914787681003276  0.2856180469251655
  0.6140401805383817  0.6677814122590391  0.3180940322828931
  0.3018658182585057  0.7241748518305258  0.2947278431914455
  0.4975049810108416  0.8344625867112399  0.2871789064261066
  0.3764406902365920  0.5438537590928689  0.3811962084087241
  0.6084310292705766  0.5609437791278751  0.3250265365174698
  0.6040705119716918  0.3335422745020722  0.2987008673411040
  0.3918989139461289  0.3297295993969556  0.3190338927037644
  0.5097267582002587  0.4232004980691499  0.4067787685971496
  0.4565496020774660  0.6930070081339466  0.3688417076787047
 
  0.00000000E+00  0.00000000E+00  0.00000000E+00
  0.00000000E+00  0.00000000E+00  0.00000000E+00
  0.00000000E+00  0.00000000E+00  0.00000000E+00
  0.00000000E+00  0.00000000E+00  0.00000000E+00
  0.00000000E+00  0.00000000E+00  0.00000000E+00
  0.00000000E+00  0.00000000E+00  0.00000000E+00
  0.00000000E+00  0.00000000E+00  0.00000000E+00
  0.00000000E+00  0.00000000E+00  0.00000000E+00
  0.00000000E+00  0.00000000E+00  0.00000000E+00
  0.00000000E+00  0.00000000E+00  0.00000000E+00
  0.00000000E+00  0.00000000E+00  0.00000000E+00
  0.00000000E+00  0.00000000E+00  0.00000000E+00
  0.00000000E+00  0.00000000E+00  0.00000000E+00
  0.00000000E+00  0.00000000E+00  0.00000000E+00
  0.00000000E+00  0.00000000E+00  0.00000000E+00
  0.00000000E+00  0.00000000E+00  0.00000000E+00
  0.00000000E+00  0.00000000E+00  0.00000000E+00
  0.00000000E+00  0.00000000E+00  0.00000000E+00
  0.00000000E+00  0.00000000E+00  0.00000000E+00
  0.00000000E+00  0.00000000E+00  0.00000000E+00
  0.00000000E+00  0.00000000E+00  0.00000000E+00
  0.00000000E+00  0.00000000E+00  0.00000000E+00
  0.00000000E+00  0.00000000E+00  0.00000000E+00
  0.00000000E+00  0.00000000E+00  0.00000000E+00
  0.00000000E+00  0.00000000E+00  0.00000000E+00
  0.00000000E+00  0.00000000E+00  0.00000000E+00
  0.00000000E+00  0.00000000E+00  0.00000000E+00
  0.00000000E+00  0.00000000E+00  0.00000000E+00
  0.00000000E+00  0.00000000E+00  0.00000000E+00
  0.00000000E+00  0.00000000E+00  0.00000000E+00
  0.00000000E+00  0.00000000E+00  0.00000000E+00
  0.00000000E+00  0.00000000E+00  0.00000000E+00
  0.00000000E+00  0.00000000E+00  0.00000000E+00
  0.00000000E+00  0.00000000E+00  0.00000000E+00
  0.00000000E+00  0.00000000E+00  0.00000000E+00
  0.00000000E+00  0.00000000E+00  0.00000000E+00
  0.00000000E+00  0.00000000E+00  0.00000000E+00
  0.00000000E+00  0.00000000E+00  0.00000000E+00
  0.00000000E+00  0.00000000E+00  0.00000000E+00
  0.00000000E+00  0.00000000E+00  0.00000000E+00
  0.00000000E+00  0.00000000E+00  0.00000000E+00
  0.00000000E+00  0.00000000E+00  0.00000000E+00
  0.00000000E+00  0.00000000E+00  0.00000000E+00
  0.00000000E+00  0.00000000E+00  0.00000000E+00
  0.00000000E+00  0.00000000E+00  0.00000000E+00
  0.00000000E+00  0.00000000E+00  0.00000000E+00
  0.00000000E+00  0.00000000E+00  0.00000000E+00
  0.00000000E+00  0.00000000E+00  0.00000000E+00
  0.00000000E+00  0.00000000E+00  0.00000000E+00
  0.00000000E+00  0.00000000E+00  0.00000000E+00
  0.00000000E+00  0.00000000E+00  0.00000000E+00
  0.00000000E+00  0.00000000E+00  0.00000000E+00
  0.00000000E+00  0.00000000E+00  0.00000000E+00
  0.00000000E+00  0.00000000E+00  0.00000000E+00
  0.00000000E+00  0.00000000E+00  0.00000000E+00
  0.00000000E+00  0.00000000E+00  0.00000000E+00
  0.00000000E+00  0.00000000E+00  0.00000000E+00
  0.00000000E+00  0.00000000E+00  0.00000000E+00
