C4                                      
   1.00000000000000     
    12.3386201859000000    0.0000000000000000    0.0000000000000000
     0.0000000000000000   12.8226699829000008    0.0000000000000000
     0.0000000000000000    0.0000000000000000   15.0000000000000000
   C    N    Au   Nb
    49     7     1     1
Direct
 -0.0017691484400722 -0.0003131314822466  0.2916253926878154
  0.6030160289262771  0.2271471436458694  0.2788240692120587
  0.8999498688342789  0.1650076017357600  0.2858014371435991
  0.8067401695328107  0.3310792139521780  0.2721306878366094
  0.7113929115802052  0.4972008620522456  0.2606159513980587
  0.3986035056691292  0.0049496699024504  0.2938795991427772
  0.1986453674074497  0.0025659626443296  0.2955596072456833
  0.0978392295490431  0.1660195981946239  0.2953340608288759
  0.0003276055553739  0.3329010312495735  0.2911814203752623
  0.9042066528540742  0.4997854208113294  0.2803199574998639
  0.8035980832720884  0.6668784907726942  0.2729172672635712
  0.6941603341029626  0.8304044808684592  0.2828168094070881
  0.5963588572202788  0.0010745586406600  0.2871206405374205
  0.2977449801072587  0.1692389070227692  0.2976190741085136
  0.1933818438962341  0.3316624335667717  0.3047322802651818
  0.0991216578594091  0.5023199200047134  0.3017052463807277
  0.0019724912053406  0.6681991164310296  0.2914484621789839
  0.8978550011822496  0.8336563022317406  0.2871171504144837
  0.7971290587915942 -0.0012296648362114  0.2858849163810888
  0.4992711626571386  0.1745379121370907  0.2874702272840470
  0.2912989041260921  0.4958568101249278  0.3129154489131999
  0.2031906307216136  0.6714866640727268  0.3064243964943005
  0.0989506723730698  0.8354424886056333  0.2963818001334888
  0.7003968888959318  0.1666292667436805  0.2788317352470340
  0.2983535496503677  0.8378384868128815  0.3024071485185623
  0.0978719866478019  0.0555723714146637  0.2939522819552053
 -0.0007980352177725  0.2218057916368446  0.2910134857878131
  0.9036810114353492  0.3886656329314738  0.2798635101776892
  0.8066347954410510  0.5547411732553735  0.2701430866721095
  0.7018569420898474  0.7186683042432740  0.2713674291646738
  0.5929115548583895  0.8888460871394996  0.2898657778175711
  0.4983348294604446  0.0615576618410469  0.2895432910089115
  0.2980989785768018  0.0588535505545694  0.2952707507839465
  0.1963542109918872  0.2219015448505616  0.2996697450809910
  0.0974078127867751  0.3902324055988449  0.3008404583676790
  0.0014198359256378  0.5572322535509873  0.2915577943380027
  0.9015011333289036  0.7230005948665619  0.2839693284715534
  0.7958710427031437  0.8869088175370464  0.2854211438709349
  0.6977999204258888  0.0553082727650629  0.2834003874203209
  0.3964350672657227  0.2277192491164169  0.2953396975643893
  0.2906661481735688  0.3862042664554833  0.3078070668051248
  0.1980789069251432  0.5590338148552693  0.3091549815549646
  0.1021324221912688  0.7241473089011112  0.2983873094891397
 -0.0014874121181303  0.8889416527084504  0.2918485508204436
  0.8981781377149319  0.0539630805726475  0.2879839996747607
  0.1989493963576652  0.8916905160827927  0.2979416472786919
  0.8019141249527929  0.2205108229594775  0.2782719088572404
  0.7100690452269341  0.3862643347968991  0.2657281137090233
  0.3983334837793154  0.8943965631703062  0.2984059294765412
  0.6100818585937078  0.6583410784666459  0.2600699843365004
  0.3017759615225565  0.7290792847122324  0.3109254828458437
  0.4942921757942518  0.8378177944265760  0.3004055123796868
  0.3873467392152105  0.5449932454046416  0.3162978213145080
  0.6161610047393141  0.5489660066823209  0.2413905185278204
  0.6139918014508239  0.3328782739186704  0.2728818277359288
  0.3872204439518760  0.3337999177530160  0.2998741122314050
  0.5014568385111420  0.4429751546600477  0.2861360476274658
  0.4637216601683914  0.6725330962843348  0.3186122798215523
 
  0.00000000E+00  0.00000000E+00  0.00000000E+00
  0.00000000E+00  0.00000000E+00  0.00000000E+00
  0.00000000E+00  0.00000000E+00  0.00000000E+00
  0.00000000E+00  0.00000000E+00  0.00000000E+00
  0.00000000E+00  0.00000000E+00  0.00000000E+00
  0.00000000E+00  0.00000000E+00  0.00000000E+00
  0.00000000E+00  0.00000000E+00  0.00000000E+00
  0.00000000E+00  0.00000000E+00  0.00000000E+00
  0.00000000E+00  0.00000000E+00  0.00000000E+00
  0.00000000E+00  0.00000000E+00  0.00000000E+00
  0.00000000E+00  0.00000000E+00  0.00000000E+00
  0.00000000E+00  0.00000000E+00  0.00000000E+00
  0.00000000E+00  0.00000000E+00  0.00000000E+00
  0.00000000E+00  0.00000000E+00  0.00000000E+00
  0.00000000E+00  0.00000000E+00  0.00000000E+00
  0.00000000E+00  0.00000000E+00  0.00000000E+00
  0.00000000E+00  0.00000000E+00  0.00000000E+00
  0.00000000E+00  0.00000000E+00  0.00000000E+00
  0.00000000E+00  0.00000000E+00  0.00000000E+00
  0.00000000E+00  0.00000000E+00  0.00000000E+00
  0.00000000E+00  0.00000000E+00  0.00000000E+00
  0.00000000E+00  0.00000000E+00  0.00000000E+00
  0.00000000E+00  0.00000000E+00  0.00000000E+00
  0.00000000E+00  0.00000000E+00  0.00000000E+00
  0.00000000E+00  0.00000000E+00  0.00000000E+00
  0.00000000E+00  0.00000000E+00  0.00000000E+00
  0.00000000E+00  0.00000000E+00  0.00000000E+00
  0.00000000E+00  0.00000000E+00  0.00000000E+00
  0.00000000E+00  0.00000000E+00  0.00000000E+00
  0.00000000E+00  0.00000000E+00  0.00000000E+00
  0.00000000E+00  0.00000000E+00  0.00000000E+00
  0.00000000E+00  0.00000000E+00  0.00000000E+00
  0.00000000E+00  0.00000000E+00  0.00000000E+00
  0.00000000E+00  0.00000000E+00  0.00000000E+00
  0.00000000E+00  0.00000000E+00  0.00000000E+00
  0.00000000E+00  0.00000000E+00  0.00000000E+00
  0.00000000E+00  0.00000000E+00  0.00000000E+00
  0.00000000E+00  0.00000000E+00  0.00000000E+00
  0.00000000E+00  0.00000000E+00  0.00000000E+00
  0.00000000E+00  0.00000000E+00  0.00000000E+00
  0.00000000E+00  0.00000000E+00  0.00000000E+00
  0.00000000E+00  0.00000000E+00  0.00000000E+00
  0.00000000E+00  0.00000000E+00  0.00000000E+00
  0.00000000E+00  0.00000000E+00  0.00000000E+00
  0.00000000E+00  0.00000000E+00  0.00000000E+00
  0.00000000E+00  0.00000000E+00  0.00000000E+00
  0.00000000E+00  0.00000000E+00  0.00000000E+00
  0.00000000E+00  0.00000000E+00  0.00000000E+00
  0.00000000E+00  0.00000000E+00  0.00000000E+00
  0.00000000E+00  0.00000000E+00  0.00000000E+00
  0.00000000E+00  0.00000000E+00  0.00000000E+00
  0.00000000E+00  0.00000000E+00  0.00000000E+00
  0.00000000E+00  0.00000000E+00  0.00000000E+00
  0.00000000E+00  0.00000000E+00  0.00000000E+00
  0.00000000E+00  0.00000000E+00  0.00000000E+00
  0.00000000E+00  0.00000000E+00  0.00000000E+00
  0.00000000E+00  0.00000000E+00  0.00000000E+00
  0.00000000E+00  0.00000000E+00  0.00000000E+00
