Re1 Os1 C55 N1                          
   1.00000000000000     
    12.3386200000000006    0.0000000000000000    0.0000000000000000
     0.0000000000000000   12.8226700000000005    0.0000000000000000
     0.0000000000000000    0.0000000000000000   15.0000000000000000
   C    N    C    Re   Os
    53     1     2     1     1
Direct
  0.0024362029314031 -0.0000787073980523  0.2926374057920692
  0.9003445303553899  0.1669528581187572  0.2973883203181031
  0.8001887582374045  0.3354687983289316  0.3004399733933329
  0.7022889446090920  0.5046547736992943  0.3035912227965383
  0.5996001283366998  0.6654457498484835  0.3026333629623357
  0.5056066449391092  0.8344840051843774  0.3001609518880980
  0.4030862281373391  0.0012443865242830  0.2924036187419643
  0.2038896987814763  0.9972525476864400  0.2916099657918241
  0.1005763220961994  0.1649358220340774  0.2921726808163548
  0.9988039453347636  0.3325661078937856  0.2935351329624952
  0.9001432768428668  0.5007687753833948  0.2929803422482369
  0.8013072689618055  0.6686979439624204  0.2948836334058995
  0.7024085987049392  0.8343216293258479  0.2969579273118707
  0.6027564946431685  0.0027158295785589  0.2962146529148901
  0.3009703312411856  0.1660297034098858  0.2831130584590154
  0.1964455431333204  0.3308988428074895  0.2837235032963460
  0.0965471575244025  0.4981462070938171  0.2811148134165984
  0.0003036332764190  0.6674089034005154  0.2796140270315963
  0.9024368237202134  0.8344722048960154  0.2893828121855684
  0.8015069749029482  0.0016643231802046  0.2950262458523933
  0.5013154843863672  0.1695617811589384  0.2882394878397085
  0.2915557041221947  0.4941892915894792  0.2442821708832130
  0.1036133560113454  0.8327731354681147  0.2842424845278846
  0.6994232605492843  0.1713694509678577  0.2975173860767280
  0.1026742056287727  0.0537377392704574  0.2919159179260914
  0.0003389586807203  0.2212273253646876  0.2953495683530372
  0.9001638090739976  0.3898495305913964  0.2964666591108149
  0.8015602193684513  0.5580083592551612  0.2970619854375002
  0.7007239177604402  0.7227602027106045  0.2985794996051799
  0.6037260707903925  0.8912209710627812  0.2983874243815648
  0.5025378917318306  0.0587187396904318  0.2925861390058323
  0.3023519699540960  0.0549144014604077  0.2900059417003219
  0.1996510837280633  0.2209101301995461  0.2868292972088799
  0.0975722614861192  0.3875313358885395  0.2868835831382780
  0.9990745066820311  0.5557777163375277  0.2842396465514041
  0.9012553611275315  0.7237143828823093  0.2881781980034391
  0.8023491600080981  0.8901273270225695  0.2937394061247812
  0.7014660711616119  0.0589227457109200  0.2960197304215041
  0.4002904627610996  0.2217201759787389  0.2766691407959692
  0.2944479596948330  0.3848815139017862  0.2652091631034927
  0.1940418156947149  0.5531117752443374  0.2623243333690301
  0.1003851863540874  0.7225494101582526  0.2724377695803802
  0.0037311827111764  0.8887045158041671  0.2886180531342211
  0.9019131195303108  0.0559770464710803  0.2952319792987891
  0.5992992045585982  0.2300530486645097  0.2958280301654744
  0.2071191338182388  0.8847051140302937  0.2913150097693038
  0.8003173172377248  0.2243536337893718  0.2992872962053285
  0.7007936710240431  0.3921888919391184  0.3034572073088693
  0.4039928870556410  0.8903890606230587  0.2973760806397713
  0.1963358427579968  0.6632860750403552  0.2628548107668912
  0.3089929388230228  0.8294913326715907  0.2977356967045215
  0.5001280614668864  0.7245257293027609  0.3029553906847185
  0.3917901817281815  0.5483791410658767  0.2307356466400685
  0.6047773481050152  0.5556273274942044  0.3069622555990800
  0.5986430994200145  0.3428264392635759  0.3022796060406292
  0.3955945020248938  0.3316094214762560  0.2667098404389474
  0.4691844095120185  0.4555918923049370  0.3095649801419777
  0.3452208767600200  0.6645511831854629  0.3067455317308503
 
  0.00000000E+00  0.00000000E+00  0.00000000E+00
  0.00000000E+00  0.00000000E+00  0.00000000E+00
  0.00000000E+00  0.00000000E+00  0.00000000E+00
  0.00000000E+00  0.00000000E+00  0.00000000E+00
  0.00000000E+00  0.00000000E+00  0.00000000E+00
  0.00000000E+00  0.00000000E+00  0.00000000E+00
  0.00000000E+00  0.00000000E+00  0.00000000E+00
  0.00000000E+00  0.00000000E+00  0.00000000E+00
  0.00000000E+00  0.00000000E+00  0.00000000E+00
  0.00000000E+00  0.00000000E+00  0.00000000E+00
  0.00000000E+00  0.00000000E+00  0.00000000E+00
  0.00000000E+00  0.00000000E+00  0.00000000E+00
  0.00000000E+00  0.00000000E+00  0.00000000E+00
  0.00000000E+00  0.00000000E+00  0.00000000E+00
  0.00000000E+00  0.00000000E+00  0.00000000E+00
  0.00000000E+00  0.00000000E+00  0.00000000E+00
  0.00000000E+00  0.00000000E+00  0.00000000E+00
  0.00000000E+00  0.00000000E+00  0.00000000E+00
  0.00000000E+00  0.00000000E+00  0.00000000E+00
  0.00000000E+00  0.00000000E+00  0.00000000E+00
  0.00000000E+00  0.00000000E+00  0.00000000E+00
  0.00000000E+00  0.00000000E+00  0.00000000E+00
  0.00000000E+00  0.00000000E+00  0.00000000E+00
  0.00000000E+00  0.00000000E+00  0.00000000E+00
  0.00000000E+00  0.00000000E+00  0.00000000E+00
  0.00000000E+00  0.00000000E+00  0.00000000E+00
  0.00000000E+00  0.00000000E+00  0.00000000E+00
  0.00000000E+00  0.00000000E+00  0.00000000E+00
  0.00000000E+00  0.00000000E+00  0.00000000E+00
  0.00000000E+00  0.00000000E+00  0.00000000E+00
  0.00000000E+00  0.00000000E+00  0.00000000E+00
  0.00000000E+00  0.00000000E+00  0.00000000E+00
  0.00000000E+00  0.00000000E+00  0.00000000E+00
  0.00000000E+00  0.00000000E+00  0.00000000E+00
  0.00000000E+00  0.00000000E+00  0.00000000E+00
  0.00000000E+00  0.00000000E+00  0.00000000E+00
  0.00000000E+00  0.00000000E+00  0.00000000E+00
  0.00000000E+00  0.00000000E+00  0.00000000E+00
  0.00000000E+00  0.00000000E+00  0.00000000E+00
  0.00000000E+00  0.00000000E+00  0.00000000E+00
  0.00000000E+00  0.00000000E+00  0.00000000E+00
  0.00000000E+00  0.00000000E+00  0.00000000E+00
  0.00000000E+00  0.00000000E+00  0.00000000E+00
  0.00000000E+00  0.00000000E+00  0.00000000E+00
  0.00000000E+00  0.00000000E+00  0.00000000E+00
  0.00000000E+00  0.00000000E+00  0.00000000E+00
  0.00000000E+00  0.00000000E+00  0.00000000E+00
  0.00000000E+00  0.00000000E+00  0.00000000E+00
  0.00000000E+00  0.00000000E+00  0.00000000E+00
  0.00000000E+00  0.00000000E+00  0.00000000E+00
  0.00000000E+00  0.00000000E+00  0.00000000E+00
  0.00000000E+00  0.00000000E+00  0.00000000E+00
  0.00000000E+00  0.00000000E+00  0.00000000E+00
  0.00000000E+00  0.00000000E+00  0.00000000E+00
  0.00000000E+00  0.00000000E+00  0.00000000E+00
  0.00000000E+00  0.00000000E+00  0.00000000E+00
  0.00000000E+00  0.00000000E+00  0.00000000E+00
  0.00000000E+00  0.00000000E+00  0.00000000E+00
