Mn1 Tc1 C55 N1                          
   1.00000000000000     
    12.3386200000000006    0.0000000000000000    0.0000000000000000
     0.0000000000000000   12.8226700000000005    0.0000000000000000
     0.0000000000000000    0.0000000000000000    8.6850380000000005
   C    N    C    Mn   Tc
    51     1     4     1     1
Direct
  0.9988946254452102  0.0005100399728164  0.5006308655028988
  0.8998232403373407  0.1666360526538710  0.4924561436435297
  0.8009275237985491  0.3325634971837985  0.4872928514556776
  0.7022391685371971  0.5003721168832982  0.4710371257834325
  0.3982905380947415  0.9937304491440386  0.5173517949007973
  0.1977524319860393  0.0004309159259748  0.5139067951760481
  0.0993741873071912  0.1669254229754245  0.5051172259340220
  0.0005209636595822  0.3336499844439160  0.5008918398147699
  0.9015609238660645  0.4997391421117854  0.4974101227604706
  0.8018177074436323  0.6659345260281171  0.4922532510268738
  0.7028013752608970  0.8331832186652335  0.4708480724754907
  0.5987766192337176  0.9978015519268837  0.4739380130687820
  0.2993479077249006  0.1639475668964891  0.5118371169842959
  0.2003026828200518  0.3332580414739184  0.5094349731977630
  0.1009823223087878  0.5002840531259594  0.5096117308332779
  0.0001504093045170  0.6669117947683318  0.5066890367453354
  0.9005653343162479  0.8336694959679178  0.4976789668555881
  0.7992636850733419  0.0002341629642615  0.4835980188567888
  0.4991245882933981  0.1633525561035540  0.4955110798972981
  0.3024174565274080  0.5046100627601717  0.5214715261640421
  0.1992950739586803  0.6685387260434297  0.5196616536635759
  0.0985953933283454  0.8337075926834672  0.5110274010919724
  0.6985049648111215  0.1671988995291400  0.4822393947453278
  0.2967440951716398  0.8369582124726946  0.5290462053235530
  0.0984868413484179  0.0562772388483452  0.5068723929646808
  0.9997197201835277  0.2222295974743744  0.4993682842308189
  0.9010812966267352  0.3886269139125815  0.4947960821323463
  0.8018683279017012  0.5555203294840183  0.4884128392849689
  0.7020834792875164  0.7205961120151940  0.4735232756581524
  0.4986151715706981  0.0522480756602874  0.4963842227408293
  0.2990824542185848  0.0524816693598709  0.5147686777303235
  0.2002685823092847  0.2215219412771816  0.5092550216068688
  0.1005186007269927  0.3891264565701604  0.5069592301279258
  0.0009171555772696  0.5553807885436015  0.5060793018837444
  0.9008262046788147  0.7224242672763168  0.5001618976784101
  0.8014609581983905  0.8894847426984143  0.4869934541649457
  0.6983189036987199  0.0552976164875076  0.4770420229634951
  0.3990232666771405  0.2192579114020603  0.5084073699913461
  0.3012879468152150  0.3880607801639044  0.5149752161373726
  0.2005881355519037  0.5570705619791312  0.5157190290992091
  0.0989417800560659  0.7231282503400607  0.5126331712978214
  0.9995165233899215  0.8894952446656035  0.5030236632336695
  0.8992725652502642  0.0557911945920466  0.4917860892032238
  0.5982809068574824  0.2243584087484365  0.4832739323687747
  0.2968640025773794  0.7261377334925996  0.5306559715893044
  0.1975432191979607  0.8904587297636581  0.5168053443579694
  0.7994397818097454  0.2217908908656838  0.4871196994688063
  0.7012957903154131  0.3873423858567833  0.4778983965481558
  0.6025572362564446  0.6615879896942545  0.4610464997237997
  0.6028552862354601  0.8875306741831182  0.4645638404917634
  0.3993882063964591  0.6762481756560703  0.5384734441283783
  0.3958997689518924  0.8859058592805837  0.5363126612078659
  0.3986841664988106  0.5676151338211994  0.5294391681175483
  0.6024467774048432  0.5519037924764092  0.4518380317977346
  0.6003483813507700  0.3359279121093834  0.4761655005641430
  0.3969069724021708  0.3277822827263392  0.5102249335146425
  0.4777798808011511  0.4483549195704697  0.4606847898747262
  0.5297584902682715  0.7734473362999097  0.5673953382146166
 
  0.00000000E+00  0.00000000E+00  0.00000000E+00
  0.00000000E+00  0.00000000E+00  0.00000000E+00
  0.00000000E+00  0.00000000E+00  0.00000000E+00
  0.00000000E+00  0.00000000E+00  0.00000000E+00
  0.00000000E+00  0.00000000E+00  0.00000000E+00
  0.00000000E+00  0.00000000E+00  0.00000000E+00
  0.00000000E+00  0.00000000E+00  0.00000000E+00
  0.00000000E+00  0.00000000E+00  0.00000000E+00
  0.00000000E+00  0.00000000E+00  0.00000000E+00
  0.00000000E+00  0.00000000E+00  0.00000000E+00
  0.00000000E+00  0.00000000E+00  0.00000000E+00
  0.00000000E+00  0.00000000E+00  0.00000000E+00
  0.00000000E+00  0.00000000E+00  0.00000000E+00
  0.00000000E+00  0.00000000E+00  0.00000000E+00
  0.00000000E+00  0.00000000E+00  0.00000000E+00
  0.00000000E+00  0.00000000E+00  0.00000000E+00
  0.00000000E+00  0.00000000E+00  0.00000000E+00
  0.00000000E+00  0.00000000E+00  0.00000000E+00
  0.00000000E+00  0.00000000E+00  0.00000000E+00
  0.00000000E+00  0.00000000E+00  0.00000000E+00
  0.00000000E+00  0.00000000E+00  0.00000000E+00
  0.00000000E+00  0.00000000E+00  0.00000000E+00
  0.00000000E+00  0.00000000E+00  0.00000000E+00
  0.00000000E+00  0.00000000E+00  0.00000000E+00
  0.00000000E+00  0.00000000E+00  0.00000000E+00
  0.00000000E+00  0.00000000E+00  0.00000000E+00
  0.00000000E+00  0.00000000E+00  0.00000000E+00
  0.00000000E+00  0.00000000E+00  0.00000000E+00
  0.00000000E+00  0.00000000E+00  0.00000000E+00
  0.00000000E+00  0.00000000E+00  0.00000000E+00
  0.00000000E+00  0.00000000E+00  0.00000000E+00
  0.00000000E+00  0.00000000E+00  0.00000000E+00
  0.00000000E+00  0.00000000E+00  0.00000000E+00
  0.00000000E+00  0.00000000E+00  0.00000000E+00
  0.00000000E+00  0.00000000E+00  0.00000000E+00
  0.00000000E+00  0.00000000E+00  0.00000000E+00
  0.00000000E+00  0.00000000E+00  0.00000000E+00
  0.00000000E+00  0.00000000E+00  0.00000000E+00
  0.00000000E+00  0.00000000E+00  0.00000000E+00
  0.00000000E+00  0.00000000E+00  0.00000000E+00
  0.00000000E+00  0.00000000E+00  0.00000000E+00
  0.00000000E+00  0.00000000E+00  0.00000000E+00
  0.00000000E+00  0.00000000E+00  0.00000000E+00
  0.00000000E+00  0.00000000E+00  0.00000000E+00
  0.00000000E+00  0.00000000E+00  0.00000000E+00
  0.00000000E+00  0.00000000E+00  0.00000000E+00
  0.00000000E+00  0.00000000E+00  0.00000000E+00
  0.00000000E+00  0.00000000E+00  0.00000000E+00
  0.00000000E+00  0.00000000E+00  0.00000000E+00
  0.00000000E+00  0.00000000E+00  0.00000000E+00
  0.00000000E+00  0.00000000E+00  0.00000000E+00
  0.00000000E+00  0.00000000E+00  0.00000000E+00
  0.00000000E+00  0.00000000E+00  0.00000000E+00
  0.00000000E+00  0.00000000E+00  0.00000000E+00
  0.00000000E+00  0.00000000E+00  0.00000000E+00
  0.00000000E+00  0.00000000E+00  0.00000000E+00
  0.00000000E+00  0.00000000E+00  0.00000000E+00
  0.00000000E+00  0.00000000E+00  0.00000000E+00
