V1 W1 C56                               
   1.00000000000000     
    12.3386200000000006    0.0000000000000000    0.0000000000000000
     0.0000000000000000   12.8226700000000005    0.0000000000000000
     0.0000000000000000    0.0000000000000000   15.0000000000000000
   C    V    W 
    56     1     1
Direct
  0.0002755385904149  0.0000810323187469  0.2911735682866831
  0.5996351367488596  0.2221122884278179  0.2858626272408905
  0.8995995237981560  0.1672752125733601  0.2889616096045836
  0.7981471569663205  0.3346476867782847  0.2876300086868288
  0.6949983622542589  0.5020173365017980  0.2944685950315727
  0.4002841364449575  0.0002382897098939  0.2899743499923787
  0.1998376923805153 -0.0005218196417126  0.2910012664575370
  0.0995762436818502  0.1670123041109814  0.2899639059252918
 -0.0007452074501161  0.3338295450212145  0.2866863443084068
  0.9003040197185532  0.5002906253122144  0.2861330903794011
  0.8007988482080413  0.6664190404423342  0.2891610474640117
  0.7013442479320160  0.8338067521493533  0.2886956222727119
  0.6009468082329797 -0.0000083000678213  0.2890296760593565
  0.2990325120321363  0.1651348812794729  0.2925887377094574
  0.2005358216330428  0.3338555717969331  0.2906298066475359
  0.0014677779622927  0.6656375736627389  0.2882770752812947
  0.9012531678742404  0.8328456641027520  0.2909377837773490
  0.8005954309073141  0.0001460891019474  0.2902850989675925
  0.5000080323181189  0.1656291087018435  0.2890160740170220
  0.1008702749952158  0.8326293957481767  0.2938431568679603
  0.6998129986101748  0.1670117328454687  0.2878068462601068
  0.3015417447975938  0.8345548160366164  0.2887851819298629
  0.1000066498687056  0.0557037527427919  0.2909623073450606
 -0.0004858921386440  0.2225564313965310  0.2888639574209014
  0.8993270359196889  0.3895066475527336  0.2866523978322790
  0.7985409090210173  0.5557650718922543  0.2898961747866269
  0.7013999515823539  0.7226725445749327  0.2892032630833178
  0.6015569717449593  0.8892148802913695  0.2884196640770947
  0.5006357970013858  0.0550563160319950  0.2895934032156665
  0.2996638780320852  0.0544877832680199  0.2910722290502240
  0.1999223528378409  0.2224201620479567  0.2910975950109750
  0.0993273583816135  0.3895888207128020  0.2833786293340506
  0.0031581217595665  0.5542328080890647  0.2819509960166294
  0.9019490904810871  0.7212965668207434  0.2891392005682846
  0.8012910140173555  0.8888671941844719  0.2901884401793761
  0.7005612335684338  0.0557128623596284  0.2894318041534215
  0.3988544793009359  0.2185283214625161  0.2923939110695664
  0.1019990222749627  0.7209401594663464  0.2953995788143579
  0.0009859872738388  0.8884776399623803  0.2919498147016315
  0.9003171466406805  0.0558491765762737  0.2903661999400838
  0.2007049914535561  0.8885157926501134  0.2914748526888877
  0.7993380641773210  0.2230547190369820  0.2875060253747629
  0.6979873838538648  0.3901553344944308  0.2888160710294077
  0.4008181708216957  0.8896300251299616  0.2877582235938041
  0.6016663598833045  0.6677726483384390  0.2933632154652950
  0.3024172192164190  0.7228087250962144  0.2942542330521424
  0.5010707134304865  0.8341042478394322  0.2871596593164847
  0.5984071004123047  0.3337479435946064  0.2831519850211398
  0.3981899519845186  0.3291403879962648  0.2885750668122560
  0.5010955419828793  0.7240040793771041  0.2884646933989691
  0.4031112218827557  0.6652764663767137  0.2933483728890870
  0.5944005163341362  0.5582787401371185  0.3032549226520762
  0.4966068224988087  0.3839803390445023  0.2810382638335422
  0.2025800487470562  0.6684677136127036  0.2992319832175485
  0.1041025711372721  0.4990962987334475  0.2736484607161540
  0.2996343004862939  0.3908101814652939  0.2932917076991250
  0.2652789148874055  0.5469866062981930  0.2438399867722880
  0.4234587306051226  0.5097617844332821  0.3320102366997240
 
  0.00000000E+00  0.00000000E+00  0.00000000E+00
  0.00000000E+00  0.00000000E+00  0.00000000E+00
  0.00000000E+00  0.00000000E+00  0.00000000E+00
  0.00000000E+00  0.00000000E+00  0.00000000E+00
  0.00000000E+00  0.00000000E+00  0.00000000E+00
  0.00000000E+00  0.00000000E+00  0.00000000E+00
  0.00000000E+00  0.00000000E+00  0.00000000E+00
  0.00000000E+00  0.00000000E+00  0.00000000E+00
  0.00000000E+00  0.00000000E+00  0.00000000E+00
  0.00000000E+00  0.00000000E+00  0.00000000E+00
  0.00000000E+00  0.00000000E+00  0.00000000E+00
  0.00000000E+00  0.00000000E+00  0.00000000E+00
  0.00000000E+00  0.00000000E+00  0.00000000E+00
  0.00000000E+00  0.00000000E+00  0.00000000E+00
  0.00000000E+00  0.00000000E+00  0.00000000E+00
  0.00000000E+00  0.00000000E+00  0.00000000E+00
  0.00000000E+00  0.00000000E+00  0.00000000E+00
  0.00000000E+00  0.00000000E+00  0.00000000E+00
  0.00000000E+00  0.00000000E+00  0.00000000E+00
  0.00000000E+00  0.00000000E+00  0.00000000E+00
  0.00000000E+00  0.00000000E+00  0.00000000E+00
  0.00000000E+00  0.00000000E+00  0.00000000E+00
  0.00000000E+00  0.00000000E+00  0.00000000E+00
  0.00000000E+00  0.00000000E+00  0.00000000E+00
  0.00000000E+00  0.00000000E+00  0.00000000E+00
  0.00000000E+00  0.00000000E+00  0.00000000E+00
  0.00000000E+00  0.00000000E+00  0.00000000E+00
  0.00000000E+00  0.00000000E+00  0.00000000E+00
  0.00000000E+00  0.00000000E+00  0.00000000E+00
  0.00000000E+00  0.00000000E+00  0.00000000E+00
  0.00000000E+00  0.00000000E+00  0.00000000E+00
  0.00000000E+00  0.00000000E+00  0.00000000E+00
  0.00000000E+00  0.00000000E+00  0.00000000E+00
  0.00000000E+00  0.00000000E+00  0.00000000E+00
  0.00000000E+00  0.00000000E+00  0.00000000E+00
  0.00000000E+00  0.00000000E+00  0.00000000E+00
  0.00000000E+00  0.00000000E+00  0.00000000E+00
  0.00000000E+00  0.00000000E+00  0.00000000E+00
  0.00000000E+00  0.00000000E+00  0.00000000E+00
  0.00000000E+00  0.00000000E+00  0.00000000E+00
  0.00000000E+00  0.00000000E+00  0.00000000E+00
  0.00000000E+00  0.00000000E+00  0.00000000E+00
  0.00000000E+00  0.00000000E+00  0.00000000E+00
  0.00000000E+00  0.00000000E+00  0.00000000E+00
  0.00000000E+00  0.00000000E+00  0.00000000E+00
  0.00000000E+00  0.00000000E+00  0.00000000E+00
  0.00000000E+00  0.00000000E+00  0.00000000E+00
  0.00000000E+00  0.00000000E+00  0.00000000E+00
  0.00000000E+00  0.00000000E+00  0.00000000E+00
  0.00000000E+00  0.00000000E+00  0.00000000E+00
  0.00000000E+00  0.00000000E+00  0.00000000E+00
  0.00000000E+00  0.00000000E+00  0.00000000E+00
  0.00000000E+00  0.00000000E+00  0.00000000E+00
  0.00000000E+00  0.00000000E+00  0.00000000E+00
  0.00000000E+00  0.00000000E+00  0.00000000E+00
  0.00000000E+00  0.00000000E+00  0.00000000E+00
  0.00000000E+00  0.00000000E+00  0.00000000E+00
  0.00000000E+00  0.00000000E+00  0.00000000E+00
